(set-info :smt-lib-version 2.6)
(set-logic QF_S)
(set-info :source |
Generated by: Shaoke Cui
Generated on: 2025-04-10
Application: Using String Solvers to solve string matching problems
Target solver: cvc5, OSTRICH, Z3, Z3alpha, Z3-noodler
Benchmarks for substring matching problem, which needs to determine whether the pattern string exists in the text string.
|)
(set-info :license "https://creativecommons.org/licenses/by/4.0/")
(set-info :category "crafted")
(set-info :status sat)
(declare-fun a1() String)
(declare-fun a2() String)
(declare-fun a3() String)
(declare-fun a4() String)
(declare-fun a5() String)
(declare-fun a6() String)
(declare-fun a7() String)
(declare-fun a8() String)
(declare-fun a9() String)
(declare-fun a10() String)
(declare-fun a11() String)
(declare-fun a12() String)
(declare-fun a13() String)
(declare-fun a14() String)
(declare-fun a15() String)
(declare-fun a16() String)
(declare-fun a17() String)
(declare-fun a18() String)
(declare-fun a19() String)
(declare-fun a20() String)
(declare-fun a21() String)
(declare-fun a22() String)
(declare-fun a23() String)
(declare-fun a24() String)
(declare-fun a25() String)
(declare-fun a26() String)
(declare-fun a27() String)
(declare-fun a28() String)
(declare-fun a29() String)
(declare-fun a30() String)
(declare-fun a31() String)
(declare-fun a32() String)
(declare-fun a33() String)
(declare-fun a34() String)
(declare-fun a35() String)
(declare-fun a36() String)
(declare-fun a37() String)
(declare-fun a38() String)
(declare-fun a39() String)
(declare-fun a40() String)
(assert (= a1 "PPPPPPPPPPPPPPPPPPPPPPPPPPPPPPPPPPPPPPPPPPPPPPPPPPPPPPPPPPPPPPPPPPPPPPPPPPPPPPPPPPPPPPPPPPPPPPPPPPPPPPPPPPPPPPPPPPPPPPPP"))
(assert (= a2 "PPPPPPPPPPPPPPPPPPPPPPPPPPPPPPPPPPPPPPPPPPPPPPPPPPPPPPPPPPPPPPPPPPPPPPPPPPPPPPPPPPPPPPPPPPPPPPPPPPPPPPPPPPPPPPPPPPPPPPPP"))
(assert (= a3 "PPPPPPPPPPPPPPPPPPPPPPPPPPPPPPPPPPPPPPPPPPPPPPPPPPPPPPPPPPPPPPPPPPPPPPPPPPPPPPPPPPPPPPPPPPPPPPPPPPPPPPPPPPPPPPPPPPPPPPPP"))
(assert (= a4 "PPPPPPPPPPPPPPPPPPPPPPPPPPPPPPPPPPPPPPPPPPPPPPPPPPPPPPPPPPPPPPPPPPPPPPPPPPPPPPPPPPPPPPPPPPPPPPPPPPPPPPPPPPPPPPPPPPPPPPPP"))
(assert (= a5 "PPPPPPPPPPPPPPPPPPPPPPPPPPPPPPPPPPPPPPPPPPPPPPPPPPPPPPPPPPPPPPPPPPPPPPPPPPPPPPPPPPPPPPPPPPPPPPPPPPPPPPPPPPPPPPPPPPPPPPPP"))
(assert (= a6 "PPPPPPPPPPPPPPPPPPPPPPPPPPPPPPPPPPPPPPPPPPPPPPPPPPPPPPPPPPPPPPPPPPPPPPPPPPPPPPPPPPPPPPPPPPPPPPPPPPPPPPPPPPPPPPPPPPPPPPPP"))
(assert (= a7 "PPPPPPPPPPPPPPPPPPPPPPPPPPPPPPPPPPPPPPPPPPPPPPPPPPPPPPPPPPPPPPPPPPPPPPPPPPPPPPPPPPPPPPPPPPPPPPPPPPPPPPPPPPPPPPPPPPPPPPPP"))
(assert (= a8 "PPPPPPPPPPPPPPPPPPPPPPPPPPPPPPPPPPPPPPPPPPPPPPPPPPPPPPPPPPPPPPPPPPPPPPPPPPPPPPPPPPPPPPPPPPPPPPPPPPPPPPPPPPPPPPPPPPPPPPPP"))
(assert (= a9 "PPPPPPPPPPPPPPPPPPPPPPPPPPPPPPPPPPPPPPPPPPPPPPPPPPPPPPPPPPPPPPPPPPPPPPPPPPPPPPPPPPPPPPPPPPPPPPPPPPPPPPPPPPPPPPPPPPPPPPPP"))
(assert (= a10 "PPPPPPPPPPPPPPPPPPPPPPPPPPPPPPPPPPPPPPPPPPPPPPPPPPPPPPPPPPPPPPPPPPPPPPPPPPPPPPPPPPPPPPPPPPPPPPPPPPPPPPPPPPPPPPPPPPPPPPPP"))
(assert (= a11 "PPPPPPPPPPPPPPPPPPPPPPPPPPPPPPPPPPPPPPPPPPPPPPPPPPPPPPPPPPPPPPPPPPPPPPPPPPPPPPPPPPPPPPPPPPPPPPPPPPPPPPPPPPPPPPPPPPPPPPPP"))
(assert (= a12 "PPPPPPPPPPPPPPPPPPPPPPPPPPPPPPPPPPPPPPPPPPPPPPPPPPPPPPPPPPPPPPPPPPPPPPPPPPPPPPPPPPPPPPPPPPPPPPPPPPPPPPPPPPPPPPPPPPPPPPPP"))
(assert (= a13 "PPPPPPPPPPPPPPPPPPPPPPPPPPPPPPPPPPPPPPPPPPPPPPPPPPPPPPPPPPPPPPPPPPPPPPPPPPPPPPPPPPPPPPPPPPPPPPPPPPPPPPPPPPPPPPPPPPPPPPPP"))
(assert (= a14 "PPPPPPPPPPPPPPPPPPPPPPPPPPPPPPPPPPPPPPPPPPPPPPPPPPPPPPPPPPPPPPPPPPPPPPPPPPPPPPPPPPPPPPPPPPPPPPPPPPPPPPPPPPPPPPPPPPPPPPPP"))
(assert (= a15 "PPPPPPPPPPPPPPPPPPPPPPPPPPPPPPPPPPPPPPPPPPPPPPPPPPPPPPPPPPPPPPPPPPPPPPPPPPPPPPPPPPPPPPPPPPPPPPPPPPPPPPPPPPPPPPPPPPPPPPPP"))
(assert (= a16 "PPPPPPPPPPPPPPPPPPPPPPPPPPPPPPPPPPPPPPPPPPPPPPPPPPPPPPPPPPPPPPPPPPPPPPPPPPPPPPPPPPPPPPPPPPPPPPPPPPPPPPPPPPPPPPPPPPPPPPPP"))
(assert (= a17 "PPPPPPPPPPPPPPPPPPPPPPPPPPPPPPPPPPPPPPPPPPPPPPPPPPPPPPPPPPPPPPPPPPPPPPPPPPPPPPPPPPPPPPPPPPPPPPPPPPPPPPPPPPPPPPPPPPPPPPPP"))
(assert (= a18 "PPPPPPPPPPPPPPPPPPPPPPPPPPPPPPPPPPPPPPPPPPPPPPPPPPPPPPPPPPPPPPPPPPPPPPPPPPPPPPPPPPPPPPPPPPPPPPPPPPPPPPPPPPPPPPPPPPPPPPPP"))
(assert (= a19 "PPPPPPPPPPPPPPPPPPPPPPPPPPPPPPPPPPPPPPPPPPPPPPPPPPPPPPPPPPPPPPPPPPPPPPPPPPPPPPPPPPPPPPPPPPPPPPPPPPPPPPPPPPPPPPPPPPPPPPPP"))
(assert (= a20 "PPPPPPPPPPPPPPPPPPPPPPPPPPPPPPPPPPPPPPPPPPPPPPPPPPPPPPPPPPPPPPPPPPPPPPPPPPPPPPPPPPPPPPPPPPPPPPPPPPPPPPPPPPPPPPPPPPPPPPPP"))
(assert (= a21 "PPPPPPPPPPPPPPPPPPPPPPPPPPPPPPPPPPPPPPPPPPPPPPPPPPPPPPPPPPPPPPPPPPPPPPPPPPPPPPPPPPPPPPPPPPPPPPPPPPPPPPPPPPPPPPPPPPPPP"))
(assert (= a22 "PPPPPPPPPPPPPPPPPPPPPPPPPPPPPPPPPPPPPPPPPPPPPPPPPPPPPPPPPPPPPPPPPPPPPPPPPPPPPPPPPPPPPPPPPPPPPPPPPPPPPPPPPPPPPPPPPPPPP"))
(assert (= a23 "PPPPPPPPPPPPPPPPPPPPPPPPPPPPPPPPPPPPPPPPPPPPPPPPPPPPPPPPPPPPPPPPPPPPPPPPPPPPPPPPPPPPPPPPPPPPPPPPPPPPPPPPPPPPPPPPPPPPP"))
(assert (= a24 "PPPPPPPPPPPPPPPPPPPPPPPPPPPPPPPPPPPPPPPPPPPPPPPPPPPPPPPPPPPPPPPPPPPPPPPPPPPPPPPPPPPPPPPPPPPPPPPPPPPPPPPPPPPPPPPPPPPPP"))
(assert (= a25 "PPPPPPPPPPPPPPPPPPPPPPPPPPPPPPPPPPPPPPPPPPPPPPPPPPPPPPPPPPPPPPPPPPPPPPPPPPPPPPPPPPPPPPPPPPPPPPPPPPPPPPPPPPPPPPPPPPPPP"))
(assert (= a26 "PPPPPPPPPPPPPPPPPPPPPPPPPPPPPPPPPPPPPPPPPPPPPPPPPPPPPPPPPPPPPPPPPPPPPPPPPPPPPPPPPPPPPPPPPPPPPPPPPPPPPPPPPPPPPPPPPPPPP"))
(assert (= a27 "PPPPPPPPPPPPPPPPPPPPPPPPPPPPPPPPPPPPPPPPPPPPPPPPPPPPPPPPPPPPPPPPPPPPPPPPPPPPPPPPPPPPPPPPPPPPPPPPPPPPPPPPPPPPPPPPPPPPP"))
(assert (= a28 "PPPPPPPPPPPPPPPPPPPPPPPPPPPPPPPPPPPPPPPPPPPPPPPPPPPPPPPPPPPPPPPPPPPPPPPPPPPPPPPPPPPPPPPPPPPPPPPPPPPPPPPPPPPPPPPPPPPPP"))
(assert (= a29 "PPPPPPPPPPPPPPPPPPPPPPPPPPPPPPPPPPPPPPPPPPPPPPPPPPPPPPPPPPPPPPPPPPPPPPPPPPPPPPPPPPPPPPPPPPPPPPPPPPPPPPPPPPPPPPPPPPPPP"))
(assert (= a30 "PPPPPPPPPPPPPPPPPPPPPPPPPPPPPPPPPPPPPPPPPPPPPPPPPPPPPPPPPPPPPPPPPPPPPPPPPPPPPPPPPPPPPPPPPPPPPPPPPPPPPPPPPPPPPPPPPPPPP"))
(assert (= a31 "PPPPPPPPPPPPPPPPPPPPPPPPPPPPPPPPPPPPPPPPPPPPPPPPPPPPPPPPPPPPPPPPPPPPPPPPPPPPPPPPPPPPPPPPPPPPPPPPPPPPPPPPPPPPPPPPPPPPP"))
(assert (= a32 "PPPPPPPPPPPPPPPPPPPPPPPPPPPPPPPPPPPPPPPPPPPPPPPPPPPPPPPPPPPPPPPPPPPPPPPPPPPPPPPPPPPPPPPPPPPPPPPPPPPPPPPPPPPPPPPPPPPPP"))
(assert (= a33 "PPPPPPPPPPPPPPPPPPPPPPPPPPPPPPPPPPPPPPPPPPPPPPPPPPPPPPPPPPPPPPPPPPPPPPPPPPPPPPPPPPPPPPPPPPPPPPPPPPPPPPPPPPPPPPPPPPPPP"))
(assert (= a34 "PPPPPPPPPPPPPPPPPPPPPPPPPPPPPPPPPPPPPPPPPPPPPPPPPPPPPPPPPPPPPPPPPPPPPPPPPPPPPPPPPPPPPPPPPPPPPPPPPPPPPPPPPPPPPPPPPPPPP"))
(assert (= a35 "PPPPPPPPPPPPPPPPPPPPPPPPPPPPPPPPPPPPPPPPPPPPPPPPPPPPPPPPPPPPPPPPPPPPPPPPPPPPPPPPPPPPPPPPPPPPPPPPPPPPPPPPPPPPPPPPPPPPP"))
(assert (= a36 "PPPPPPPPPPPPPPPPPPPPPPPPPPPPPPPPPPPPPPPPPPPPPPPPPPPPPPPPPPPPPPPPPPPPPPPPPPPPPPPPPPPPPPPPPPPPPPPPPPPPPPPPPPPPPPPPPPPPP"))
(assert (= a37 "PPPPPPPPPPPPPPPPPPPPPPPPPPPPPPPPPPPPPPPPPPPPPPPPPPPPPPPPPPPPPPPPPPPPPPPPPPPPPPPPPPPPPPPPPPPPPPPPPPPPPPPPPPPPPPPPPPPPP"))
(assert (= a38 "PPPPPPPPPPPPPPPPPPPPPPPPPPPPPPPPPPPPPPPPPPPPPPPPPPPPPPPPPPPPPPPPPPPPPPPPPPPPPPPPPPPPPPPPPPPPPPPPPPPPPPPPPPPPPPPPPPPPP"))
(assert (= a39 "PPPPPPPPPPPPPPPPPPPPPPPPPPPPPPPPPPPPPPPPPPPPPPPPPPPPPPPPPPPPPPPPPPPPPPPPPPPPPPPPPPPPPPPPPPPPPPPPPPPPPPPPPPPPPPPPPPPPP"))
(assert (= a40 "PPPPPPPPPPPPPPPPPPPPPPPPPPPPPPPPPPPPPPPPPPPPPPPPPPPPPPPPPPPPPPPPPPPPPPPPPPPPPPPPPPPPPPPPPPPPPPPPPPPPPPPPPPPPPPPPPPPPP"))
(assert (str.contains (str.++ a20 a19 a4 a5 a1 a18 a11 a19 a10 a1 a4 a5 a18 a14 a4 a15 a8 a9 a4 a2 a11 a3 a5 a9 a20 a17 a16 a15 a7 a2 a18 a18 a19 a13 a15 a12 a3 a7 a14 a13 a19 a20 a6 a10 a7 a9 a7 a7 a11 a12 a20 a4 a18 a11 a13 a6 a9 a12 a16 a9 a15 a16 a9 a3 a5 a5 a4 a18 a19 a9 a19 a1 a11 a3 a4 a9 a16 a7 a17 a14 a9 a11 a16 a3 a17 a16 a18 a15 a20 a1 a16 a1 a1 a3 a9 a20 a19 a8 a1 a6 a3 a20 a10 a1 a5 a5 a11 a4 a8 a18 a10 a13 a9 a3 a19 a18 a11 a2 a18 a11 a7 a1 a20 a8 a13 a3 a11 a17 a1 a15 a12 a6 a3 a2 a15 a12 a16 a17 a8 a1 a9 a2 a11 a1 a19 a2 a2 a11 a19 a6 a15 a6 a17 a1 a19 a15 a2 a10 a15 a16 a18 a17 a14 a7 a11 a1 a11 a17 a8 a8 a19 a11 a10 a4 a20 a15 a8 a19 a5 a11 a12 a7 a4 a1 a17 a1 a4 a3 a14 a9 a19 a12 a6 a9 a9 a11 a17 a3 a20 a2 a12 a15 a5 a2 a13 a14 a20 a6 a5 a1 a5 a18 a18 a1 a7 a7 a2 a7 a18 a20 a8 a19 a4 a15 a10 a13 a17 a13 a9 a4 a12 a3 a4 a12 a4 a20 a2 a4 a17 a7 a20 a6 a15 a12 a20 a5 a18 a15 a20 a19 a10 a12 a7 a18 a17 a6 a14 a4 a19 a6 a2 a12 a20 a8 a16 a18 a3 a15 a12 a5 a12 a6 a2 a9 a19 a13 a10 a13 a20 a5 a13 a2 a18 a15 a3 a16 a16 a6 a13 a17 a13 a5 a6 a4 a13 a16 a6 a1 a6 a10 a20 a2 a6 a20 a20 a7 a7 a16 a14 a14 a3 a6 a16 a8 a16 a13 a18 a18 a18 a16 a2 a10 a19 a11 a15 a20 a2 a4 a1 a11 a2 a9 a4 a18 a8 a5 a5 a4 a8 a1 a19 a6 a7 a5 a9 a18 a8 a20 a19 a7 a14 a7 a17 a10 a8 a14 a14 a7 a2 a7 a2 a12 a2 a18 a10 a12 a2 a4 a5 a5 a17 a18 a15 a17 a3 a4 a3 a11 a8 a9 a5 a17 a8 a18 a6 a14 a12 a8 a4 a16 a20 a10 a16 a14 a1 a16 a8 a20 a20 a17 a16 a15 a1 a20 a11 a10 a8 a6 a7 a3 a4 a18 a2 a15 a1 a4 a7 a20 a8 a20 a4 a7 a10 a12 a2 a19 a18 a7 a19 a2 a12 a20 a14 a18 a5 a15 a15 a12 a3 a8 a19 a12 a18 a18 a19 a6 a20 a2 a5 a4 a12 a15 a9 a19 a18 a1 a6 a13 a19 a16 a14 a13 a20 a7 a16 a3 a7 a9 a15 a2 a5 a20 a11 a16 a20 a19 a20 a4 a14 a1 a1 a14 a5 a9 a17 a16 a9 a2 a9 a3 a4 a16 a20 a6 a13 a14 a8 a14 a5 a18 a1 a2 a2 a20 a1 a17 a17 a13 a10 a10 a8 a9 a13 a9 a14 a20 a10 a11 a4 a18 a12 a6 a18 a10 a17 a16 a8 a20 a9 a13 a3 a2 a7 a18 a10 a7 a15 a12 a4 a12 a11 a17 a17 a6 a4 a9 a8 a20 a9 a18 a2 a13 a15 a2 a15 a3 a3 a19 a1 a11 a8 a13 a14 a11 a17 a17 a16 a6 a20 a6 a11 a5 a15 a14 a2 a1 a8 a4 a18 a8 a6 a4 a2 a8 a14 a4 a9 a13 a8 a18 a4 a8 a2 a15 a7 a14 a19 a9 a18 a2 a20 a1 a6 a1 a5 a3 a17 a14 a2 a18 a4 a13 a13 a9 a16 a11 a7 a2 a2 a9 a11 a18 a15 a3 a1 a9 a13 a3 a9 a2 a17 a13 a7 a20 a20 a16 a18 a11 a17 a17 a6 a17 a2 a1 a19 a5 a19 a16 a3 a15 a17 a9 a7 a5 a3 a7 a11 a5 a17 a3 a12 a19 a4 a19 a19 a8 a14 a13 a11 a7 a11 a4 a10 a1 a16 a14 a3 a14 a11 a15 a20 a5 a20 a9 a16 a14 a16 a18 a16 a3 a6 a18 a17 a7 a10 a9 a5 a20 a1 a14 a2 a17 a12 a4 a11 a7 a15 a13 a7 a10 a7 a19 a7 a19 a19 a10 a11 a10 a10 a19 a17 a12 a20 a1 a18 a15 a2 a16 a18 a10 a7 a8 a2 a18 a4 a11 a9 a8 a7 a11 a14 a6 a11 a15 a15 a10 a4 a5 a13 a14 a5 a1 a5 a9 a7 a1 a9 a20 a17 a7 a12 a19 a17 a20 a18 a2 a12 a12 a9 a19 a3 a7 a4 a19 a3 a11 a13 a1 a3 a19 a17 a17 a20 a5 a12 a12 a20 a20 a14 a3 a5 a1 a18 a10 a2 a7 a6 a16 a14 a7 a10 a9 a2 a15 a14 a14 a12 a11 a3 a5 a14 a20 a20 a7 a16 a12 a2 a14 a18 a17 a7 a1 a18 a10 a1 a17 a19 a20 a2 a15 a19 a8 a9 a19 a2 a6 a12 a19 a5 a12 a16 a7 a5 a5 a9 a2 a12 a15 a13 a2 a15 a3 a3 a13 a11 a1 a1 a3 a20 a2 a8 a4 a5 a19 a7 a5 a1 a6 a11 a7 a18 a20 a11 a6 a6 a9 a3 a15 a20 a11 a1 a7 a14 a13 a9 a6 a3 a9 a7 a5 a5 a9 a9 a6 a20 a15 a13 a17 a3 a20 a11 a3 a1 a20 a18 a15 a11 a20 a1 a19 a8 a18 a13 a3 a16 a9 a3 a12 a2 a8 a18 a19 a16 a17 a6 a20 a12 a1 a17 a10 a1 a20 a18 a11 a14 a5 a4 a13 a8 a6 a1 a14 a13 a13 a2 a9 a7 a8 a11 a19 a15 a1 a12 a2 a13 a12 a3 a2 a15 a20 a15 a18 a20 a15 a19 a19 a6 a4 a7 a1 a18 a16 a1 a8 a20 a18 a6 a5 a4 a3 a3 a13 a1 a3 a4 a16 a10 a7 a13 a5 a8 a10 a6 a2 a9 a9 a17 a19 a16 a2 a8 a5 a7 a3 a14 a11 a19 a14 a16 a14 a2 a10 a10 a5 a11 a8 a6 a6 a1 a13 a1 a10 a12 a2 a3 a5 a17 a7 a9 a3 a3 a3 a10 a10 a13 a16 a19 a5 a19 a1 a15 a3 a13 a8 a2 a14 a4 a11 a8 a14 a4 a2 a5 a14 a8 a1 a10 a13 a16 a14 a7 a17 a16 a1 a1 a8 a12 a14 a13 a17 a8 a11 a2 a3 a16 a8 a9 a11 a20 a19 a18 a1 a13 a16 a10 a1 a1 a3 a1 a3 a11 a20 a13 a4 a10 a1 a3 a8 a16 a14 a16 a7 a7 a6 a18 a19 a5 a4 a16 a17 a17 a14 a11 a13 a3 a15 a18 a13 a19 a19 a15 a5 a7 a9 a7 a12 a5 a11 a11 a6 a4 a20 a9 a2 a9 a13 a10 a11 a3 a12 a4 a14 a5 a19 a13 a9 a5 a20 a3 a4 a6 a8 a17 a16 a9 a13 a1 a15 a4 a9 a8 a13 a13 a14 a20 a17 a12 a8 a2 a16 a20 a3 a15 a4 a19 a13 a11 a20 a12 a19 a6 a16 a13 a14 a1 a5 a7 a17 a14 a14 a4 a6 a14 a1 a2 a16 a16 a17 a9 a11 a5 a13 a19 a9 a7 a12 a5 a15 a18 a10 a2 a13 a4 a4 a7 a15 a10 a10 a6 a12 a7 a1 a2 a11 a14 a13 a1 a14 a15 a11 a14 a8 a6 a13 a9 a18  "1" a23 a28 a37 a34 a29 a25 a32 a30 a38 a21 a23 a33 a34 a37 a31 a29 a34 a34 a36 a30 a33 a34 a24 a28 a32 a29 a36 a21 a29 a23 a33 a30 a21 a22 a34 a24 a31 a30 a25 a22 a21 a23 a38 a23 a29 a40 a26 a25 a30 a25 a39 a29 a32 a37 a34 a37 a25 a32 a36 a33 a29 a27 a40 a25 a28 a30 a40 a24 a37 a27 a38 a23 a32 a28 a35 a32 a29 a23 a22 a30 a22 a35 a35 a38 a21 a34 a29 a26 a35 a33 a34 a22 a24 a21 a29 a33 a35 a30 a22 a38 a23 a25 a26 a22 a36 a27 a32 a36 a35 a25 a25 a26 a36 a32 a24 a22 a23 a33 a24 a26 a22 a31 a28 a31 a34 a34 a36 a22 a24 a26 a32 a40 a24 a31 a24 a34 a37 a26 a30 a23 a34 a32 a25 a38 a34 a29 a34 a39 a25 a35 a32 a31 a25 a28 a38 a26 a26 a31 a23 a24 a23 a36 a29 a31 a36 a35 a22 a38 a30 a29 a32 a24 a25 a34 a31 a32 a40 a36 a26 a40 a38 a36 a21 a22 a35 a30 a29 a31 a40 a27 a33 a36 a31 a38 a31 a31 a33 a34 a31 a32 a31 a33 a34 a25 a25 a39 a39 a37 a34 a36 ) (str.++ a39 a23 a25 a39 a25 a36 a31 a25 a36 a22 a29 a33 a27 a24 a24 a29 a31 a21 a37 a27 a27 a32 a31 a37 a37 a40 a35 a34 a21 a23 a24 a34 a37 a33 a26 a21 a27 a31 a26 a27 a40 a32 a28 a31 a29 a38 a35 a34 a36 a33 a24 a26 a32 a31 a26 a25 a33 a27 a30 a39 a23 a21 a23 a37 a34 a25 a27 a24 a22 a33 a31 a25 a28 a31 a29 a26 a27 a21 a38 a30 a39 a23 a29 a25 a28 a28 a28 a27 a30 a31 a21 a27 a34 a33 a35 a26 a36 a28 a33 a34 a35 a24 a35 a38 a32 a25 a22 a22 a37 a35 a27 a40 a22 a40 a40 a38 a21 a22 a34 a37 a25 a33 a39 a24 a34 a26 a33 a27 a36 a34 a36 a28 a32 a23 a36 a23 a23 a31 a21 a24 a22 a28 a34 a32 a34 a39 a28 a39 a25 a23 a29 a25 a38 a36 a25 a38 a27 a31 a37 a34 a21 a36 a21 a33 a24 a38 a32 a23 a30 a40 a36 a25 a36 a36 a25 a22 a23 a38 a26 a33 a34 a25 a22 a30 a25 a27 a39 a26 a31 a21 a26 a34 a31 a34 a26 a29 a32 a36 a38 a27 a24 a26 a24 a32 a33 a36 a32  "1")))
(check-sat)
(exit)
